(set-info :smt-lib-version 2.6)
(set-logic UF)
(set-info :source |Benchmarks from the paper: "Extending Sledgehammer with SMT Solvers" by Jasmin Blanchette, Sascha Bohme, and Lawrence C. Paulson, CADE 2011.  Translated to SMT2 by Andrew Reynolds and Morgan Deters.|)
(set-info :category "industrial")
(set-info :status unknown)
(declare-sort S1 0)
(declare-sort S2 0)
(declare-sort S3 0)
(declare-sort S4 0)
(declare-sort S5 0)
(declare-sort S6 0)
(declare-sort S7 0)
(declare-sort S8 0)
(declare-sort S9 0)
(declare-sort S10 0)
(declare-sort S11 0)
(declare-sort S12 0)
(declare-sort S13 0)
(declare-sort S14 0)
(declare-sort S15 0)
(declare-sort S16 0)
(declare-sort S17 0)
(declare-sort S18 0)
(declare-sort S19 0)
(declare-sort S20 0)
(declare-sort S21 0)
(declare-sort S22 0)
(declare-sort S23 0)
(declare-sort S24 0)
(declare-sort S25 0)
(declare-sort S26 0)
(declare-sort S27 0)
(declare-sort S28 0)
(declare-sort S29 0)
(declare-sort S30 0)
(declare-sort S31 0)
(declare-sort S32 0)
(declare-sort S33 0)
(declare-sort S34 0)
(declare-sort S35 0)
(declare-sort S36 0)
(declare-sort S37 0)
(declare-sort S38 0)
(declare-sort S39 0)
(declare-sort S40 0)
(declare-sort S41 0)
(declare-sort S42 0)
(declare-sort S43 0)
(declare-fun f1 () S1)
(declare-fun f2 () S1)
(declare-fun f3 (S4 S3) S1)
(declare-fun f4 (S5 S3) S4)
(declare-fun f5 (S2) S5)
(declare-fun f6 (S6 S2) S1)
(declare-fun f7 (S7 S3) S6)
(declare-fun f8 (S8 S3) S7)
(declare-fun f9 () S8)
(declare-fun f10 (S2 S6) S1)
(declare-fun f11 (S11 S10) S2)
(declare-fun f12 (S9) S11)
(declare-fun f13 (S12 S9) S1)
(declare-fun f14 (S13 S6) S12)
(declare-fun f15 (S14 S10) S13)
(declare-fun f16 () S14)
(declare-fun f17 (S18 S17) S1)
(declare-fun f18 (S19 S16) S18)
(declare-fun f19 (S15) S19)
(declare-fun f20 (S20 S15) S1)
(declare-fun f21 (S21 S17) S20)
(declare-fun f22 (S22 S16) S21)
(declare-fun f23 () S22)
(declare-fun f24 (S16 S23) S24)
(declare-fun f25 () S16)
(declare-fun f26 () S24)
(declare-fun f27 (S26 S16 S27 S28 S25) S1)
(declare-fun f28 () S26)
(declare-fun f29 () S16)
(declare-fun f30 () S27)
(declare-fun f31 (S29 S3) S28)
(declare-fun f32 () S29)
(declare-fun f33 () S3)
(declare-fun f34 (S26 S25 S25) S1)
(declare-fun f35 () S25)
(declare-fun f36 () S10)
(declare-fun f37 () S10)
(declare-fun f38 (S12) S30)
(declare-fun f39 () S3)
(declare-fun f40 () S3)
(declare-fun f41 (S3) S30)
(declare-fun f42 (S15 S20) S1)
(declare-fun f43 (S31 S27) S15)
(declare-fun f44 (S26) S31)
(declare-fun f45 () S17)
(declare-fun f46 (S32 S28) S28)
(declare-fun f47 (S33 S10) S32)
(declare-fun f48 (S34 S28) S33)
(declare-fun f49 () S34)
(declare-fun f50 (S35 S26) S1)
(declare-fun f51 () S35)
(declare-fun f52 () S25)
(declare-fun f53 (S36 S28) S32)
(declare-fun f54 (S37 S28) S36)
(declare-fun f55 () S37)
(declare-fun f56 (S16 S3) S38)
(declare-fun f57 (S25) S38)
(declare-fun f58 (S16 S16) S1)
(declare-fun f59 (S26 S16 S3 S25) S1)
(declare-fun f60 () S10)
(declare-fun f61 (S39 S28) S15)
(declare-fun f62 (S40 S20) S39)
(declare-fun f63 (S41 S28) S40)
(declare-fun f64 (S26) S41)
(declare-fun f65 (S26) S41)
(declare-fun f66 (S26 S16 S17 S27) S1)
(declare-fun f67 (S17 S42) S30)
(declare-fun f68 (S27 S42) S38)
(declare-fun f69 (S9 S12) S1)
(declare-fun f70 (S43 S1) S3)
(declare-fun f71 () S43)
(assert (not (= f1 f2)))
(assert (forall ((?v0 S2) (?v1 S3) (?v2 S3)) (= (= (f3 (f4 (f5 ?v0) ?v1) ?v2) f1) (= (f6 (f7 (f8 f9 ?v1) ?v2) ?v0) f1))))
(assert (forall ((?v0 S9) (?v1 S10) (?v2 S6)) (= (= (f10 (f11 (f12 ?v0) ?v1) ?v2) f1) (= (f13 (f14 (f15 f16 ?v1) ?v2) ?v0) f1))))
(assert (forall ((?v0 S15) (?v1 S16) (?v2 S17)) (= (= (f17 (f18 (f19 ?v0) ?v1) ?v2) f1) (= (f20 (f21 (f22 f23 ?v1) ?v2) ?v0) f1))))
(assert (forall ((?v0 S23)) (= (f24 f25 ?v0) f26)))
(assert (not (exists ((?v0 S25)) (and (= (f27 f28 f29 f30 (f31 f32 f33) ?v0) f1) (= (f34 f28 ?v0 f35) f1)))))
(assert (= f36 f37))
(assert (= (f38 (f14 (f15 f16 f36) (f7 (f8 f9 f39) f40))) (f41 f33)))
(assert (= (f42 (f43 (f44 f28) f30) (f21 (f22 f23 f29) f45)) f1))
(assert (= (f27 f28 f29 f30 (f46 (f47 (f48 f49 (f31 f32 f39)) f36) (f31 f32 f40)) f35) f1))
(assert (= (f42 (f43 (f44 f28) f30) (f21 (f22 f23 f29) f45)) f1))
(assert (= (f38 (f14 (f15 f16 f36) (f7 (f8 f9 f39) f40))) (f41 f33)))
(assert (= (f27 f28 f29 f30 (f46 (f47 (f48 f49 (f31 f32 f39)) f36) (f31 f32 f40)) f35) f1))
(assert (= (f50 f51 f28) f1))
(assert (forall ((?v0 S26) (?v1 S25)) (= (f34 ?v0 ?v1 ?v1) f1)))
(assert (forall ((?v0 S26) (?v1 S25) (?v2 S25) (?v3 S25)) (=> (= (f34 ?v0 ?v1 ?v2) f1) (=> (= (f34 ?v0 ?v2 ?v3) f1) (= (f34 ?v0 ?v1 ?v3) f1)))))
(assert (forall ((?v0 S3) (?v1 S3)) (= (= (f31 f32 ?v0) (f31 f32 ?v1)) (= ?v0 ?v1))))
(assert (forall ((?v0 S3) (?v1 S28) (?v2 S10) (?v3 S28)) (not (= (f31 f32 ?v0) (f46 (f47 (f48 f49 ?v1) ?v2) ?v3)))))
(assert (forall ((?v0 S28) (?v1 S10) (?v2 S28) (?v3 S3)) (not (= (f46 (f47 (f48 f49 ?v0) ?v1) ?v2) (f31 f32 ?v3)))))
(assert (forall ((?v0 S26) (?v1 S16) (?v2 S27) (?v3 S28) (?v4 S28) (?v5 S25) (?v6 S28) (?v7 S25) (?v8 S25)) (let ((?v_0 (= (f34 ?v0 ?v5 ?v7) f1)) (?v_1 (= (f34 ?v0 ?v7 ?v5) f1))) (=> (= (f27 ?v0 ?v1 ?v2 ?v3 f52) f1) (=> (= (f27 ?v0 ?v1 ?v2 ?v4 ?v5) f1) (=> (= (f27 ?v0 ?v1 ?v2 ?v6 ?v7) f1) (=> (or ?v_0 ?v_1) (=> (=> ?v_0 (= ?v8 ?v7)) (=> (=> ?v_1 (= ?v8 ?v5)) (= (f27 ?v0 ?v1 ?v2 (f46 (f53 (f54 f55 ?v3) ?v4) ?v6) ?v8) f1))))))))))
(assert (forall ((?v0 S16) (?v1 S3) (?v2 S25) (?v3 S26) (?v4 S27)) (=> (= (f56 ?v0 ?v1) (f57 ?v2)) (= (f27 ?v3 ?v0 ?v4 (f31 f32 ?v1) ?v2) f1))))
(assert (forall ((?v0 S26) (?v1 S16) (?v2 S27) (?v3 S28) (?v4 S25) (?v5 S16)) (=> (= (f27 ?v0 ?v1 ?v2 ?v3 ?v4) f1) (=> (= (f58 ?v1 ?v5) f1) (= (f27 ?v0 ?v5 ?v2 ?v3 ?v4) f1)))))
(assert (forall ((?v0 S26) (?v1 S16) (?v2 S27) (?v3 S28) (?v4 S28) (?v5 S28) (?v6 S25)) (=> (= (f27 ?v0 ?v1 ?v2 (f46 (f53 (f54 f55 ?v3) ?v4) ?v5) ?v6) f1) (=> (forall ((?v7 S25) (?v8 S25)) (let ((?v_0 (= (f34 ?v0 ?v7 ?v8) f1)) (?v_1 (= (f34 ?v0 ?v8 ?v7) f1))) (=> (= (f27 ?v0 ?v1 ?v2 ?v3 f52) f1) (=> (= (f27 ?v0 ?v1 ?v2 ?v4 ?v7) f1) (=> (= (f27 ?v0 ?v1 ?v2 ?v5 ?v8) f1) (=> (or ?v_0 ?v_1) (=> (=> ?v_0 (= ?v6 ?v8)) (=> (=> ?v_1 (= ?v6 ?v7)) false)))))))) false))))
(assert (forall ((?v0 S26) (?v1 S16) (?v2 S3) (?v3 S25) (?v4 S25)) (=> (= (f59 ?v0 ?v1 ?v2 ?v3) f1) (=> (= (f34 ?v0 ?v3 ?v4) f1) (= (f59 ?v0 ?v1 ?v2 ?v4) f1)))))
(assert (= f36 f37))
(assert (forall ((?v0 S28) (?v1 S28) (?v2 S28) (?v3 S28) (?v4 S10) (?v5 S28)) (not (= (f46 (f53 (f54 f55 ?v0) ?v1) ?v2) (f46 (f47 (f48 f49 ?v3) ?v4) ?v5)))))
(assert (forall ((?v0 S28) (?v1 S10) (?v2 S28) (?v3 S28) (?v4 S28) (?v5 S28)) (not (= (f46 (f47 (f48 f49 ?v0) ?v1) ?v2) (f46 (f53 (f54 f55 ?v3) ?v4) ?v5)))))
(assert (forall ((?v0 S28) (?v1 S28) (?v2 S28) (?v3 S28) (?v4 S28) (?v5 S28)) (= (= (f46 (f53 (f54 f55 ?v0) ?v1) ?v2) (f46 (f53 (f54 f55 ?v3) ?v4) ?v5)) (and (= ?v0 ?v3) (and (= ?v1 ?v4) (= ?v2 ?v5))))))
(assert (forall ((?v0 S28) (?v1 S10) (?v2 S28) (?v3 S28) (?v4 S10) (?v5 S28)) (= (= (f46 (f47 (f48 f49 ?v0) ?v1) ?v2) (f46 (f47 (f48 f49 ?v3) ?v4) ?v5)) (and (= ?v0 ?v3) (and (= ?v1 ?v4) (= ?v2 ?v5))))))
(assert (forall ((?v0 S16) (?v1 S16) (?v2 S26) (?v3 S3) (?v4 S25)) (=> (= (f58 ?v0 ?v1) f1) (=> (= (f59 ?v2 ?v0 ?v3 ?v4) f1) (= (f59 ?v2 ?v1 ?v3 ?v4) f1)))))
(assert (forall ((?v0 S16) (?v1 S3) (?v2 S25) (?v3 S26)) (=> (= (f56 ?v0 ?v1) (f57 ?v2)) (= (f59 ?v3 ?v0 ?v1 ?v2) f1))))
(assert (forall ((?v0 S26) (?v1 S16) (?v2 S3) (?v3 S25)) (= (= (f59 ?v0 ?v1 ?v2 ?v3) f1) (exists ((?v4 S25)) (and (= (f56 ?v1 ?v2) (f57 ?v4)) (= (f34 ?v0 ?v4 ?v3) f1))))))
(assert (forall ((?v0 S28) (?v1 S28) (?v2 S28) (?v3 S3)) (not (= (f46 (f53 (f54 f55 ?v0) ?v1) ?v2) (f31 f32 ?v3)))))
(assert (forall ((?v0 S3) (?v1 S28) (?v2 S28) (?v3 S28)) (not (= (f31 f32 ?v0) (f46 (f53 (f54 f55 ?v1) ?v2) ?v3)))))
(assert (forall ((?v0 S16) (?v1 S16) (?v2 S3) (?v3 S25)) (let ((?v_0 (f57 ?v3))) (=> (= (f58 ?v0 ?v1) f1) (=> (= (f56 ?v0 ?v2) ?v_0) (= (f56 ?v1 ?v2) ?v_0))))))
(assert (forall ((?v0 S16)) (= (f58 ?v0 ?v0) f1)))
(assert (forall ((?v0 S26) (?v1 S16) (?v2 S27) (?v3 S28) (?v4 S25) (?v5 S28) (?v6 S25)) (=> (= (f27 ?v0 ?v1 ?v2 ?v3 ?v4) f1) (=> (= (f27 ?v0 ?v1 ?v2 ?v5 ?v6) f1) (= (f27 ?v0 ?v1 ?v2 (f46 (f47 (f48 f49 ?v3) f60) ?v5) f52) f1)))))
(assert (forall ((?v0 S10) (?v1 S3) (?v2 S3) (?v3 S3) (?v4 S26) (?v5 S20)) (=> (= (f38 (f14 (f15 f16 ?v0) (f7 (f8 f9 ?v1) ?v2))) (f41 ?v3)) (= (f42 (f61 (f62 (f63 (f64 ?v4) (f46 (f47 (f48 f49 (f31 f32 ?v1)) ?v0) (f31 f32 ?v2))) ?v5) (f31 f32 ?v3)) ?v5) f1))))
(assert (forall ((?v0 S26) (?v1 S28) (?v2 S20) (?v3 S3) (?v4 S20) (?v5 S28) (?v6 S3) (?v7 S20) (?v8 S10) (?v9 S3)) (let ((?v_0 (f65 ?v0))) (=> (= (f42 (f61 (f62 (f63 ?v_0 ?v1) ?v2) (f31 f32 ?v3)) ?v4) f1) (=> (= (f42 (f61 (f62 (f63 ?v_0 ?v5) ?v4) (f31 f32 ?v6)) ?v7) f1) (=> (= (f38 (f14 (f15 f16 ?v8) (f7 (f8 f9 ?v3) ?v6))) (f41 ?v9)) (= (f42 (f61 (f62 (f63 ?v_0 (f46 (f47 (f48 f49 ?v1) ?v8) ?v5)) ?v2) (f31 f32 ?v9)) ?v7) f1)))))))
(assert (forall ((?v0 S15) (?v1 S15)) (= (= (f19 ?v0) (f19 ?v1)) (= ?v0 ?v1))))
(assert (forall ((?v0 S2) (?v1 S2)) (= (= (f5 ?v0) (f5 ?v1)) (= ?v0 ?v1))))
(assert (forall ((?v0 S9) (?v1 S9)) (= (= (f12 ?v0) (f12 ?v1)) (= ?v0 ?v1))))
(assert (forall ((?v0 S26) (?v1 S16) (?v2 S17) (?v3 S27)) (= (= (f66 ?v0 ?v1 ?v2 ?v3) f1) (forall ((?v4 S42) (?v5 S3)) (=> (= (f67 ?v2 ?v4) (f41 ?v5)) (exists ((?v6 S25)) (and (= (f68 ?v3 ?v4) (f57 ?v6)) (= (f59 ?v0 ?v1 ?v5 ?v6) f1))))))))
(assert (forall ((?v0 S16) (?v1 S16) (?v2 S16)) (=> (= (f58 ?v0 ?v1) f1) (=> (= (f58 ?v1 ?v2) f1) (= (f58 ?v0 ?v2) f1)))))
(assert (forall ((?v0 S3) (?v1 S25) (?v2 S26) (?v3 S16)) (=> (= (f56 f25 ?v0) (f57 ?v1)) (= (f59 ?v2 ?v3 ?v0 ?v1) f1))))
(assert (not (= f60 f37)))
(assert (not (= f37 f60)))
(assert (forall ((?v0 S10)) (=> (=> (= ?v0 f60) false) (=> (=> (= ?v0 f37) false) false))))
(assert (forall ((?v0 S26) (?v1 S3) (?v2 S20)) (let ((?v_0 (f31 f32 ?v1))) (= (f42 (f61 (f62 (f63 (f65 ?v0) ?v_0) ?v2) ?v_0) ?v2) f1))))
(assert (forall ((?v0 S26) (?v1 S3) (?v2 S20) (?v3 S28) (?v4 S20)) (let ((?v_0 (f31 f32 ?v1))) (=> (= (f42 (f61 (f62 (f63 (f65 ?v0) ?v_0) ?v2) ?v3) ?v4) f1) (=> (=> (= ?v3 ?v_0) (=> (= ?v4 ?v2) false)) false)))))
(assert (forall ((?v0 S26) (?v1 S28) (?v2 S20) (?v3 S28) (?v4 S20) (?v5 S10) (?v6 S28)) (let ((?v_0 (f64 ?v0))) (=> (= (f42 (f61 (f62 (f63 ?v_0 ?v1) ?v2) ?v3) ?v4) f1) (= (f42 (f61 (f62 (f63 ?v_0 (f46 (f47 (f48 f49 ?v1) ?v5) ?v6)) ?v2) (f46 (f47 (f48 f49 ?v3) ?v5) ?v6)) ?v4) f1)))))
(assert (forall ((?v0 S26) (?v1 S28) (?v2 S20) (?v3 S28) (?v4 S20) (?v5 S28) (?v6 S28)) (let ((?v_0 (f64 ?v0))) (=> (= (f42 (f61 (f62 (f63 ?v_0 ?v1) ?v2) ?v3) ?v4) f1) (= (f42 (f61 (f62 (f63 ?v_0 (f46 (f53 (f54 f55 ?v1) ?v5) ?v6)) ?v2) (f46 (f53 (f54 f55 ?v3) ?v5) ?v6)) ?v4) f1)))))
(assert (forall ((?v0 S26) (?v1 S28) (?v2 S20) (?v3 S28) (?v4 S20) (?v5 S3) (?v6 S10)) (let ((?v_0 (f64 ?v0)) (?v_1 (f47 (f48 f49 (f31 f32 ?v5)) ?v6))) (=> (= (f42 (f61 (f62 (f63 ?v_0 ?v1) ?v2) ?v3) ?v4) f1) (= (f42 (f61 (f62 (f63 ?v_0 (f46 ?v_1 ?v1)) ?v2) (f46 ?v_1 ?v3)) ?v4) f1)))))
(assert (forall ((?v0 S26) (?v1 S28) (?v2 S16) (?v3 S17) (?v4 S28) (?v5 S16) (?v6 S17)) (=> (= (f42 (f61 (f62 (f63 (f65 ?v0) ?v1) (f21 (f22 f23 ?v2) ?v3)) ?v4) (f21 (f22 f23 ?v5) ?v6)) f1) (= (f58 ?v2 ?v5) f1))))
(assert (forall ((?v0 S3) (?v1 S25) (?v2 S16)) (let ((?v_0 (f57 ?v1))) (=> (= (f56 f25 ?v0) ?v_0) (= (f56 ?v2 ?v0) ?v_0)))))
(assert (forall ((?v0 S26) (?v1 S16) (?v2 S17) (?v3 S27) (?v4 S16)) (=> (= (f66 ?v0 ?v1 ?v2 ?v3) f1) (=> (= (f58 ?v1 ?v4) f1) (= (f66 ?v0 ?v4 ?v2 ?v3) f1)))))
(assert (forall ((?v0 S16) (?v1 S17) (?v2 S16) (?v3 S17)) (=> (= (f21 (f22 f23 ?v0) ?v1) (f21 (f22 f23 ?v2) ?v3)) (=> (=> (= ?v0 ?v2) (=> (= ?v1 ?v3) false)) false))))
(assert (forall ((?v0 S3) (?v1 S3) (?v2 S3) (?v3 S3)) (=> (= (f7 (f8 f9 ?v0) ?v1) (f7 (f8 f9 ?v2) ?v3)) (=> (=> (= ?v0 ?v2) (=> (= ?v1 ?v3) false)) false))))
(assert (forall ((?v0 S10) (?v1 S6) (?v2 S10) (?v3 S6)) (=> (= (f14 (f15 f16 ?v0) ?v1) (f14 (f15 f16 ?v2) ?v3)) (=> (=> (= ?v0 ?v2) (=> (= ?v1 ?v3) false)) false))))
(assert (forall ((?v0 S16) (?v1 S17) (?v2 S16) (?v3 S17)) (= (= (f21 (f22 f23 ?v0) ?v1) (f21 (f22 f23 ?v2) ?v3)) (and (= ?v0 ?v2) (= ?v1 ?v3)))))
(assert (forall ((?v0 S3) (?v1 S3) (?v2 S3) (?v3 S3)) (= (= (f7 (f8 f9 ?v0) ?v1) (f7 (f8 f9 ?v2) ?v3)) (and (= ?v0 ?v2) (= ?v1 ?v3)))))
(assert (forall ((?v0 S10) (?v1 S6) (?v2 S10) (?v3 S6)) (= (= (f14 (f15 f16 ?v0) ?v1) (f14 (f15 f16 ?v2) ?v3)) (and (= ?v0 ?v2) (= ?v1 ?v3)))))
(assert (forall ((?v0 S15)) (= (forall ((?v1 S20)) (= (f42 ?v0 ?v1) f1)) (forall ((?v1 S16) (?v2 S17)) (= (f42 ?v0 (f21 (f22 f23 ?v1) ?v2)) f1)))))
(assert (forall ((?v0 S2)) (= (forall ((?v1 S6)) (= (f10 ?v0 ?v1) f1)) (forall ((?v1 S3) (?v2 S3)) (= (f10 ?v0 (f7 (f8 f9 ?v1) ?v2)) f1)))))
(assert (forall ((?v0 S9)) (= (forall ((?v1 S12)) (= (f69 ?v0 ?v1) f1)) (forall ((?v1 S10) (?v2 S6)) (= (f69 ?v0 (f14 (f15 f16 ?v1) ?v2)) f1)))))
(assert (forall ((?v0 S12)) (=> (forall ((?v1 S10) (?v2 S3) (?v3 S3)) (=> (= ?v0 (f14 (f15 f16 ?v1) (f7 (f8 f9 ?v2) ?v3))) false)) false)))
(assert (forall ((?v0 S9) (?v1 S12)) (=> (forall ((?v2 S10) (?v3 S3) (?v4 S3)) (= (f69 ?v0 (f14 (f15 f16 ?v2) (f7 (f8 f9 ?v3) ?v4))) f1)) (= (f69 ?v0 ?v1) f1))))
(assert (forall ((?v0 S3) (?v1 S3)) (= (f38 (f14 (f15 f16 f60) (f7 (f8 f9 ?v0) ?v1))) (f41 (f70 f71 (ite (= ?v0 ?v1) f1 f2))))))
(assert (forall ((?v0 S26) (?v1 S28) (?v2 S20) (?v3 S20) (?v4 S28) (?v5 S28) (?v6 S20) (?v7 S28)) (let ((?v_0 (f65 ?v0))) (=> (= (f42 (f61 (f62 (f63 ?v_0 ?v1) ?v2) (f31 f32 (f70 f71 f1))) ?v3) f1) (=> (= (f42 (f61 (f62 (f63 ?v_0 ?v4) ?v3) ?v5) ?v6) f1) (= (f42 (f61 (f62 (f63 ?v_0 (f46 (f53 (f54 f55 ?v1) ?v4) ?v7)) ?v2) ?v5) ?v6) f1))))))
(assert (forall ((?v0 S26) (?v1 S28) (?v2 S20) (?v3 S20) (?v4 S28) (?v5 S28) (?v6 S20) (?v7 S28)) (let ((?v_0 (f65 ?v0))) (=> (= (f42 (f61 (f62 (f63 ?v_0 ?v1) ?v2) (f31 f32 (f70 f71 f2))) ?v3) f1) (=> (= (f42 (f61 (f62 (f63 ?v_0 ?v4) ?v3) ?v5) ?v6) f1) (= (f42 (f61 (f62 (f63 ?v_0 (f46 (f53 (f54 f55 ?v1) ?v7) ?v4)) ?v2) ?v5) ?v6) f1))))))
(assert (forall ((?v0 S26) (?v1 S28) (?v2 S28) (?v3 S20)) (= (f42 (f61 (f62 (f63 (f64 ?v0) (f46 (f53 (f54 f55 (f31 f32 (f70 f71 f1))) ?v1) ?v2)) ?v3) ?v1) ?v3) f1)))
(check-sat)
(exit)
